NAME: ACTUAL_TOURS/amz2531
TYPE: TOUR
COMMENT: RouteID_261f3910-c616-414f-9d89-99b1ab67d3ac
DIMENSION: 140
TOUR_SECTION
6
92
52
106
114
20
116
85
77
110
17
89
34
118
133
39
94
58
139
87
75
105
140
72
71
7
32
38
125
135
117
1
29
96
30
31
136
60
57
113
73
98
8
80
124
115
108
24
120
5
45
26
101
127
130
123
63
88
9
126
59
28
100
61
15
86
70
14
74
54
121
48
104
79
46
43
67
21
53
103
55
3
131
102
40
62
25
134
10
78
95
97
47
56
93
83
42
44
37
69
84
51
23
64
129
112
132
68
65
90
82
18
19
109
107
91
138
35
122
81
111
11
66
22
27
36
2
128
4
99
33
49
16
137
12
41
50
76
13
119
-1
EOF
